
Gurobi 11.0.3 (linux64) logging started Fri Nov 22 02:37:01 2024

Set parameter LogFile to value "/home/yihong/Coding/OR_SUC/SUC_results_bigM100000_thread4/case24_ieee_rts_theta0.5_epsilon0.05_gurobi_seed340000_num_gen100_N_WDR100_load_scaling_factor1_proposed_T28quadra_cost.txt"
Set parameter TimeLimit to value 3600
Gurobi Optimizer version 11.0.3 build v11.0.3rc0 (linux64 - "Ubuntu 20.04.6 LTS")

CPU model: AMD EPYC 7532 32-Core Processor, instruction set [SSE2|AVX|AVX2]
Thread count: 64 physical cores, 128 logical processors, using up to 4 threads

Optimize a model with 67234 rows, 34821 columns and 1535514 nonzeros
Model fingerprint: 0xb4e80b35
Model has 2800 quadratic constraints
Variable types: 32021 continuous, 2800 integer (2800 binary)
Coefficient statistics:
  Matrix range     [3e-04, 3e+03]
  QMatrix range    [2e-03, 8e-03]
  QLMatrix range   [6e-02, 6e+01]
  Objective range  [1e+00, 1e+00]
  Bounds range     [1e+00, 1e+00]
  RHS range        [1e+00, 9e+03]
Presolve removed 55067 rows and 14810 columns
Presolve time: 0.45s
Presolved: 12167 rows, 20011 columns, 68297 nonzeros
Presolved model has 2800 quadratic constraint(s)
Variable types: 17211 continuous, 2800 integer (2800 binary)

Root relaxation: objective 5.836488e+04, 9558 iterations, 0.28 seconds (0.40 work units)

    Nodes    |    Current Node    |     Objective Bounds      |     Work
 Expl Unexpl |  Obj  Depth IntInf | Incumbent    BestBd   Gap | It/Node Time

H    0     0                    734845.26692 58364.8783  92.1%     -    1s
*    0     0               0    734845.26692 58364.8783  92.1%     -    1s
     0     0 386155.184    0  818 734845.267 386155.184  47.5%     -    1s
     0     0 692470.136    0  457 734845.267 692470.136  5.77%     -    2s
     0     0 692572.848    0   60 734845.267 692572.848  5.75%     -    2s
     0     0 692705.671    0   74 734845.267 692705.671  5.73%     -    2s
     0     0 692708.012    0   74 734845.267 692708.012  5.73%     -    2s
     0     0 692708.219    0   86 734845.267 692708.219  5.73%     -    2s
     0     0 692710.264    0   86 734845.267 692710.264  5.73%     -    2s
     0     2 692710.264    0   86 734845.267 692710.264  5.73%     -    4s
    41    59 692738.211    9   45 734845.267 692719.859  5.73%  45.2    5s
H  314   318                    693220.01218 692724.679  0.07%  33.6    8s
*  314   318              75    693220.01218 692724.679  0.07%  33.6    8s

Cutting planes:
  Gomory: 16
  Lift-and-project: 18
  Implied bound: 260
  MIR: 40
  Flow cover: 153
  RLT: 326
  Relax-and-lift: 189

Explored 404 nodes (41176 simplex iterations) in 9.26 seconds (14.46 work units)
Thread count was 4 (of 128 available processors)

Solution count 3: 693220 693220 734845 

Optimal solution found (tolerance 1.00e-03)
Warning: max constraint violation (1.8998e-07) exceeds tolerance
Best objective 6.932200121758e+05, best bound 6.927246790362e+05, gap 0.0715%
